(set-info :smt-lib-version 2.6)
(set-logic QF_BV)
(set-info :source flex.model)
(set-info :category "industrial")
(set-info :status sat)
(declare-const P0 Bool)
(declare-const P1 Bool)
(declare-const P2 (_ BitVec 2))
(assert (bvult P2 (_ bv3 2)))
(declare-const P3 (_ BitVec 2))
(assert (bvult P3 (_ bv3 2)))
(declare-const P4 Bool)
(declare-const P5 Bool)
(declare-const P6 Bool)
(declare-const P7 Bool)
(declare-const P8 (_ BitVec 3))
(assert (bvult P8 (_ bv5 3)))
(assert (or (not (= P1 false)) (not (= P2 (_ bv1 2)))))
(assert (or (= P2 (_ bv2 2)) (not (= P3 (_ bv0 2)))))
(assert (or (not (= P3 (_ bv1 2))) (= P2 (_ bv2 2))))
(assert (or (not (= P3 (_ bv1 2))) (not (= P1 false))))
(assert (or (not (= P4 false)) (not (= P2 (_ bv1 2)))))
(assert (or (not (= P4 false)) (not (= P3 (_ bv1 2)))))
(assert (or (not (= P5 false)) (not (= P2 (_ bv1 2)))))
(assert (or (not (= P5 false)) (not (= P3 (_ bv1 2)))))
(assert (or (not (= P6 false)) (= P2 (_ bv2 2))))
(assert (or (not (= P6 false)) (= P3 (_ bv2 2))))
(assert (or (not (= P7 false)) (= P3 (_ bv2 2))))
(assert (or (not (= P7 false)) (= P2 (_ bv2 2))))
(check-sat)
(exit)
